Minimize
  - 8 y_0 - 8 y_2 - 14 y_3 - 26 y_4 - 17 y_5 - 23 y_6 - 26 y_7 - 23 y_8
   - 13 y_9 - 10 y_10 - 23 y_11 - 24 y_12 - 27 y_13 - 18 y_14 - 21 y_15
   - 14 y_16 - 8 y_17 - 18 y_18 - 6 y_19 + 44 x_0_5 + 75 x_0_7 + 34 x_0_9
   + 46 x_0_10 + 91 x_0_11 + 64 x_0_12 + 47 x_0_14 + 54 x_0_15 + 67 x_0_18
   + 31 x_1_2 + 53 x_1_9 + 91 x_1_11 + 95 x_1_12 + 84 x_1_15 + 25 x_1_19
   + 74 x_2_4 + 86 x_2_7 + 78 x_2_8 + 32 x_2_9 + 8 x_2_10 + 92 x_2_13
   + 69 x_2_15 + 32 x_2_16 + 13 x_2_19 + 64 x_3_4 + 52 x_3_6 + 47 x_3_7
   + 45 x_3_10 + 72 x_3_11 + 17 x_3_14 + 23 x_3_17 + 53 x_3_19 + 100 x_4_6
   + 66 x_4_8 + 70 x_4_10 + 68 x_4_12 + 60 x_4_13 + 35 x_4_18 + 54 x_5_6
   + 37 x_5_7 + 17 x_5_9 + 51 x_5_10 + 66 x_5_11 + 34 x_5_12 + 18 x_5_16
   + 42 x_5_18 + 47 x_6_7 + 64 x_6_9 + 120 x_6_11 + 33 x_6_12 + 51 x_6_13
   + 48 x_6_14 + 38 x_6_15 + 68 x_6_17 + 95 x_6_18 + 100 x_6_19 + 15 x_7_8
   + 54 x_7_9 + 87 x_7_10 + 89 x_7_11 + 14 x_7_12 + 70 x_7_17 + 69 x_7_18
   + 21 x_8_13 + 23 x_8_14 + 59 x_8_17 + 69 x_8_18 + 32 x_9_2 + 35 x_9_10
   + 50 x_9_12 + 60 x_9_13 + 24 x_9_14 + 37 x_9_15 + 35 x_9_18 + 44 x_9_19
   + 53 x_10_11 + 84 x_10_12 + 33 x_10_16 + 30 x_10_17 + 92 x_11_13
   + 20 x_12_13 + 26 x_12_14 + 13 x_12_15 + 63 x_12_17 + 37 x_13_14
   + 77 x_13_17 + 14 x_14_15 + 26 x_14_16 + 39 x_15_16 + 25 x_16_17
   + 29 x_16_18 + 44 x_16_19 + 49 x_17_18 + 32 x_17_19 + 52 x_18_19
   + 327 Constant
Subject To
 c_0: y_16 = 1
 c_1_0: y_0 >= 1
 c_1_1: y_1 >= 1
 c_1_2: y_2 >= 1
 c_1_3: y_3 >= 1
 c_1_4: y_4 >= 1
 c_1_5: y_5 >= 1
 c_1_6: y_6 >= 1
 c_1_7: y_7 >= 1
 c_1_8: y_8 + y_12 >= 1
 c_1_9: y_9 >= 1
 c_1_10: y_10 >= 1
 c_1_11: y_11 >= 1
 c_1_12: y_8 + y_12 >= 1
 c_1_13: y_13 >= 1
 c_1_14: y_14 >= 1
 c_1_15: y_15 >= 1
 c_1_16: y_16 >= 1
 c_1_17: y_17 >= 1
 c_1_18: y_18 >= 1
 c_1_19: y_19 >= 1
 c_2_0: - 2 y_0 + x_0_5 + x_0_7 + x_0_9 + x_0_10 + x_0_11 + x_0_12 + x_0_14
   + x_0_15 + x_0_18 = 0
 c_2_1: - 2 y_1 + x_1_2 + x_1_9 + x_1_11 + x_1_12 + x_1_15 + x_1_19 = 0
 c_2_2: - 2 y_2 + x_1_2 + x_2_4 + x_2_7 + x_2_8 + x_2_10 + x_2_13 + x_2_15
   + x_2_16 + x_2_19 + 2 x_9_2 = 0
 c_2_3: - 2 y_3 + x_3_4 + x_3_6 + x_3_7 + x_3_10 + x_3_11 + x_3_14 + x_3_17
   + x_3_19 = 0
 c_2_4: - 2 y_4 + x_2_4 + x_3_4 + x_4_6 + x_4_8 + x_4_10 + x_4_12 + x_4_13
   + x_4_18 = 0
 c_2_5: - 2 y_5 + x_0_5 + x_5_6 + x_5_7 + x_5_9 + x_5_10 + x_5_11 + x_5_12
   + x_5_16 + x_5_18 = 0
 c_2_6: - 2 y_6 + x_3_6 + x_4_6 + x_5_6 + x_6_7 + x_6_9 + x_6_11 + x_6_12
   + x_6_13 + x_6_14 + x_6_15 + x_6_17 + x_6_18 + x_6_19 = 0
 c_2_7: - 2 y_7 + x_0_7 + x_2_7 + x_3_7 + x_5_7 + x_6_7 + x_7_8 + x_7_9
   + x_7_10 + x_7_11 + x_7_12 + x_7_17 + x_7_18 = 0
 c_2_8: - 2 y_8 + x_2_8 + x_4_8 + x_7_8 + x_8_13 + x_8_14 + x_8_17 + x_8_18
   = 0
 c_2_9: - 2 y_9 + x_0_9 + x_1_9 + x_5_9 + x_6_9 + x_7_9 + 2 x_9_2 + x_9_10
   + x_9_12 + x_9_13 + x_9_14 + x_9_15 + x_9_18 + x_9_19 = 0
 c_2_10: - 2 y_10 + x_0_10 + x_2_10 + x_3_10 + x_4_10 + x_5_10 + x_7_10
   + x_9_10 + x_10_11 + x_10_12 + x_10_16 + x_10_17 = 0
 c_2_11: - 2 y_11 + x_0_11 + x_1_11 + x_3_11 + x_5_11 + x_6_11 + x_7_11
   + x_10_11 + x_11_13 = 0
 c_2_12: - 2 y_12 + x_0_12 + x_1_12 + x_4_12 + x_5_12 + x_6_12 + x_7_12
   + x_9_12 + x_10_12 + x_12_13 + x_12_14 + x_12_15 + x_12_17 = 0
 c_2_13: - 2 y_13 + x_2_13 + x_4_13 + x_6_13 + x_8_13 + x_9_13 + x_11_13
   + x_12_13 + x_13_14 + x_13_17 = 0
 c_2_14: - 2 y_14 + x_0_14 + x_3_14 + x_6_14 + x_8_14 + x_9_14 + x_12_14
   + x_13_14 + x_14_15 + x_14_16 = 0
 c_2_15: - 2 y_15 + x_0_15 + x_1_15 + x_2_15 + x_6_15 + x_9_15 + x_12_15
   + x_14_15 + x_15_16 = 0
 c_2_16: - 2 y_16 + x_2_16 + x_5_16 + x_10_16 + x_14_16 + x_15_16 + x_16_17
   + x_16_18 + x_16_19 = 0
 c_2_17: - 2 y_17 + x_3_17 + x_6_17 + x_7_17 + x_8_17 + x_10_17 + x_12_17
   + x_13_17 + x_16_17 + x_17_18 + x_17_19 = 0
 c_2_18: - 2 y_18 + x_0_18 + x_4_18 + x_5_18 + x_6_18 + x_7_18 + x_8_18
   + x_9_18 + x_16_18 + x_17_18 + x_18_19 = 0
 c_2_19: - 2 y_19 + x_1_19 + x_2_19 + x_3_19 + x_6_19 + x_9_19 + x_16_19
   + x_17_19 + x_18_19 = 0
Bounds
 Constant = 1
Binaries
 y_0 y_1 y_2 y_3 y_4 y_5 y_6 y_7 y_8 y_9 y_10 y_11 y_12 y_13 y_14 y_15 y_16
 y_17 y_18 y_19 x_0_5 x_0_7 x_0_9 x_0_10 x_0_11 x_0_12 x_0_14 x_0_15 x_0_18
 x_1_2 x_1_9 x_1_11 x_1_12 x_1_15 x_1_19 x_2_4 x_2_7 x_2_8 x_2_9 x_2_10
 x_2_13 x_2_15 x_2_16 x_2_19 x_3_4 x_3_6 x_3_7 x_3_10 x_3_11 x_3_14 x_3_17
 x_3_19 x_4_6 x_4_8 x_4_10 x_4_12 x_4_13 x_4_18 x_5_6 x_5_7 x_5_9 x_5_10
 x_5_11 x_5_12 x_5_16 x_5_18 x_6_7 x_6_9 x_6_11 x_6_12 x_6_13 x_6_14 x_6_15
 x_6_17 x_6_18 x_6_19 x_7_8 x_7_9 x_7_10 x_7_11 x_7_12 x_7_17 x_7_18 x_8_13
 x_8_14 x_8_17 x_8_18 x_9_2 x_9_10 x_9_12 x_9_13 x_9_14 x_9_15 x_9_18
 x_9_19 x_10_11 x_10_12 x_10_16 x_10_17 x_11_13 x_12_13 x_12_14 x_12_15
 x_12_17 x_13_14 x_13_17 x_14_15 x_14_16 x_15_16 x_16_17 x_16_18 x_16_19
 x_17_18 x_17_19 x_18_19
End
